\ This file has been generated by DOcplex
\ ENCODING=ISO-8859-1
\Problem name: Track

Minimize
 obj: - 168 x_0_2 - 168 x_0_3 - 168 x_0_4 - 168 x_0_5 - 168 x_0_6 - 168 x_0_7
      - 168 x_1_2 - 168 x_1_3 - 168 x_1_4 - 168 x_1_5 - 168 x_1_6 - 168 x_1_7
      - 168 x_2_4 - 168 x_2_5 - 168 x_2_6 - 168 x_2_7 - 112 x_2_8 - 112 x_2_9
      - 168 x_3_4 - 168 x_3_5 - 168 x_3_6 - 168 x_3_7 - 112 x_3_8 - 112 x_3_9
      - 168 x_4_6 - 168 x_4_7 - 112 x_4_8 - 112 x_4_9 - 56 x_4_10 - 56 x_4_11
      - 168 x_5_6 - 168 x_5_7 - 112 x_5_8 - 112 x_5_9 - 56 x_5_10 - 56 x_5_11
      - 112 x_6_8 - 112 x_6_9 - 56 x_6_10 - 56 x_6_11 - 112 x_7_8 - 112 x_7_9
      - 56 x_7_10 - 56 x_7_11 - 56 x_8_10 - 56 x_8_11 - 56 x_9_10 - 56 x_9_11 +
      [ 72 x_0_2^2 + 144 x_0_2*x_0_3 + 144 x_0_2*x_0_4 + 144 x_0_2*x_0_5
      + 144 x_0_2*x_0_6 + 144 x_0_2*x_0_7 + 144 x_0_2*x_1_2 + 144 x_0_2*x_1_3
      + 144 x_0_2*x_1_4 + 144 x_0_2*x_1_5 + 144 x_0_2*x_1_6 + 144 x_0_2*x_1_7
      + 143.990931839503 x_0_2*x_2_4 + 143.996656151196 x_0_2*x_2_5
      + 143.994458243852 x_0_2*x_2_6 + 143.996160237662 x_0_2*x_2_7
      + 95.996009946947 x_0_2*x_2_8 + 95.996769905193 x_0_2*x_2_9
      + 144 x_0_2*x_3_4 + 144 x_0_2*x_3_5 + 144 x_0_2*x_3_6 + 144 x_0_2*x_3_7
      + 96 x_0_2*x_3_8 + 96 x_0_2*x_3_9 + 144 x_0_2*x_4_6 + 144 x_0_2*x_4_7
      + 96 x_0_2*x_4_8 + 96 x_0_2*x_4_9 + 48 x_0_2*x_4_10 + 48 x_0_2*x_4_11
      + 144 x_0_2*x_5_6 + 144 x_0_2*x_5_7 + 96 x_0_2*x_5_8 + 96 x_0_2*x_5_9
      + 48 x_0_2*x_5_10 + 48 x_0_2*x_5_11 + 96 x_0_2*x_6_8 + 96 x_0_2*x_6_9
      + 48 x_0_2*x_6_10 + 48 x_0_2*x_6_11 + 96 x_0_2*x_7_8 + 96 x_0_2*x_7_9
      + 48 x_0_2*x_7_10 + 48 x_0_2*x_7_11 + 48 x_0_2*x_8_10 + 48 x_0_2*x_8_11
      + 48 x_0_2*x_9_10 + 48 x_0_2*x_9_11 + 72 x_0_3^2 + 144 x_0_3*x_0_4
      + 144 x_0_3*x_0_5 + 144 x_0_3*x_0_6 + 144 x_0_3*x_0_7 + 144 x_0_3*x_1_2
      + 144 x_0_3*x_1_3 + 144 x_0_3*x_1_4 + 144 x_0_3*x_1_5 + 144 x_0_3*x_1_6
      + 144 x_0_3*x_1_7 + 144 x_0_3*x_2_4 + 144 x_0_3*x_2_5 + 144 x_0_3*x_2_6
      + 144 x_0_3*x_2_7 + 96 x_0_3*x_2_8 + 96 x_0_3*x_2_9
      + 143.999995574465 x_0_3*x_3_4 + 143.995538154349 x_0_3*x_3_5
      + 143.999474240596 x_0_3*x_3_6 + 143.997096900412 x_0_3*x_3_7
      + 95.999284792001 x_0_3*x_3_8 + 95.997848937119 x_0_3*x_3_9
      + 144 x_0_3*x_4_6 + 144 x_0_3*x_4_7 + 96 x_0_3*x_4_8 + 96 x_0_3*x_4_9
      + 48 x_0_3*x_4_10 + 48 x_0_3*x_4_11 + 144 x_0_3*x_5_6 + 144 x_0_3*x_5_7
      + 96 x_0_3*x_5_8 + 96 x_0_3*x_5_9 + 48 x_0_3*x_5_10 + 48 x_0_3*x_5_11
      + 96 x_0_3*x_6_8 + 96 x_0_3*x_6_9 + 48 x_0_3*x_6_10 + 48 x_0_3*x_6_11
      + 96 x_0_3*x_7_8 + 96 x_0_3*x_7_9 + 48 x_0_3*x_7_10 + 48 x_0_3*x_7_11
      + 48 x_0_3*x_8_10 + 48 x_0_3*x_8_11 + 48 x_0_3*x_9_10 + 48 x_0_3*x_9_11
      + 72 x_0_4^2 + 144 x_0_4*x_0_5 + 144 x_0_4*x_0_6 + 144 x_0_4*x_0_7
      + 144 x_0_4*x_1_2 + 144 x_0_4*x_1_3 + 144 x_0_4*x_1_4 + 144 x_0_4*x_1_5
      + 144 x_0_4*x_1_6 + 144 x_0_4*x_1_7 + 144 x_0_4*x_2_4 + 144 x_0_4*x_2_5
      + 144 x_0_4*x_2_6 + 144 x_0_4*x_2_7 + 96 x_0_4*x_2_8 + 96 x_0_4*x_2_9
      + 144 x_0_4*x_3_4 + 144 x_0_4*x_3_5 + 144 x_0_4*x_3_6 + 144 x_0_4*x_3_7
      + 96 x_0_4*x_3_8 + 96 x_0_4*x_3_9 + 143.994458232500 x_0_4*x_4_6
      + 143.997854757033 x_0_4*x_4_7 + 95.996009937858 x_0_4*x_4_8
      + 95.997303132037 x_0_4*x_4_9 + 47.997149879991 x_0_4*x_4_10
      + 47.997663159987 x_0_4*x_4_11 + 144 x_0_4*x_5_6 + 144 x_0_4*x_5_7
      + 96 x_0_4*x_5_8 + 96 x_0_4*x_5_9 + 48 x_0_4*x_5_10 + 48 x_0_4*x_5_11
      + 96 x_0_4*x_6_8 + 96 x_0_4*x_6_9 + 48 x_0_4*x_6_10 + 48 x_0_4*x_6_11
      + 96 x_0_4*x_7_8 + 96 x_0_4*x_7_9 + 48 x_0_4*x_7_10 + 48 x_0_4*x_7_11
      + 48 x_0_4*x_8_10 + 48 x_0_4*x_8_11 + 48 x_0_4*x_9_10 + 48 x_0_4*x_9_11
      + 72 x_0_5^2 + 144 x_0_5*x_0_6 + 144 x_0_5*x_0_7 + 144 x_0_5*x_1_2
      + 144 x_0_5*x_1_3 + 144 x_0_5*x_1_4 + 144 x_0_5*x_1_5 + 144 x_0_5*x_1_6
      + 144 x_0_5*x_1_7 + 144 x_0_5*x_2_4 + 144 x_0_5*x_2_5 + 144 x_0_5*x_2_6
      + 144 x_0_5*x_2_7 + 96 x_0_5*x_2_8 + 96 x_0_5*x_2_9 + 144 x_0_5*x_3_4
      + 144 x_0_5*x_3_5 + 144 x_0_5*x_3_6 + 144 x_0_5*x_3_7 + 96 x_0_5*x_3_8
      + 96 x_0_5*x_3_9 + 144 x_0_5*x_4_6 + 144 x_0_5*x_4_7 + 96 x_0_5*x_4_8
      + 96 x_0_5*x_4_9 + 48 x_0_5*x_4_10 + 48 x_0_5*x_4_11
      + 143.999471735179 x_0_5*x_5_6 + 143.995528021472 x_0_5*x_5_7
      + 95.998738020768 x_0_5*x_5_8 + 95.996721600138 x_0_5*x_5_9
      + 47.998643998280 x_0_5*x_5_10 + 47.997626390561 x_0_5*x_5_11
      + 96 x_0_5*x_6_8 + 96 x_0_5*x_6_9 + 48 x_0_5*x_6_10 + 48 x_0_5*x_6_11
      + 96 x_0_5*x_7_8 + 96 x_0_5*x_7_9 + 48 x_0_5*x_7_10 + 48 x_0_5*x_7_11
      + 48 x_0_5*x_8_10 + 48 x_0_5*x_8_11 + 48 x_0_5*x_9_10 + 48 x_0_5*x_9_11
      + 72 x_0_6^2 + 144 x_0_6*x_0_7 + 144 x_0_6*x_1_2 + 144 x_0_6*x_1_3
      + 144 x_0_6*x_1_4 + 144 x_0_6*x_1_5 + 144 x_0_6*x_1_6 + 144 x_0_6*x_1_7
      + 144 x_0_6*x_2_4 + 144 x_0_6*x_2_5 + 144 x_0_6*x_2_6 + 144 x_0_6*x_2_7
      + 96 x_0_6*x_2_8 + 96 x_0_6*x_2_9 + 144 x_0_6*x_3_4 + 144 x_0_6*x_3_5
      + 144 x_0_6*x_3_6 + 144 x_0_6*x_3_7 + 96 x_0_6*x_3_8 + 96 x_0_6*x_3_9
      + 144 x_0_6*x_4_6 + 144 x_0_6*x_4_7 + 96 x_0_6*x_4_8 + 96 x_0_6*x_4_9
      + 48 x_0_6*x_4_10 + 48 x_0_6*x_4_11 + 144 x_0_6*x_5_6 + 144 x_0_6*x_5_7
      + 96 x_0_6*x_5_8 + 96 x_0_6*x_5_9 + 48 x_0_6*x_5_10 + 48 x_0_6*x_5_11
      + 95.996009938575 x_0_6*x_6_8 + 95.998685495535 x_0_6*x_6_9
      + 47.997149881555 x_0_6*x_6_10 + 47.998018178384 x_0_6*x_6_11
      - 0.002216792933 x_0_6*x_6_12 - 0.001808118586 x_0_6*x_6_13
      + 96 x_0_6*x_7_8 + 96 x_0_6*x_7_9 + 48 x_0_6*x_7_10 + 48 x_0_6*x_7_11
      + 48 x_0_6*x_8_10 + 48 x_0_6*x_8_11 + 48 x_0_6*x_9_10 + 48 x_0_6*x_9_11
      + 72 x_0_7^2 + 144 x_0_7*x_1_2 + 144 x_0_7*x_1_3 + 144 x_0_7*x_1_4
      + 144 x_0_7*x_1_5 + 144 x_0_7*x_1_6 + 144 x_0_7*x_1_7 + 144 x_0_7*x_2_4
      + 144 x_0_7*x_2_5 + 144 x_0_7*x_2_6 + 144 x_0_7*x_2_7 + 96 x_0_7*x_2_8
      + 96 x_0_7*x_2_9 + 144 x_0_7*x_3_4 + 144 x_0_7*x_3_5 + 144 x_0_7*x_3_6
      + 144 x_0_7*x_3_7 + 96 x_0_7*x_3_8 + 96 x_0_7*x_3_9 + 144 x_0_7*x_4_6
      + 144 x_0_7*x_4_7 + 96 x_0_7*x_4_8 + 96 x_0_7*x_4_9 + 48 x_0_7*x_4_10
      + 48 x_0_7*x_4_11 + 144 x_0_7*x_5_6 + 144 x_0_7*x_5_7 + 96 x_0_7*x_5_8
      + 96 x_0_7*x_5_9 + 48 x_0_7*x_5_10 + 48 x_0_7*x_5_11 + 96 x_0_7*x_6_8
      + 96 x_0_7*x_6_9 + 48 x_0_7*x_6_10 + 48 x_0_7*x_6_11
      + 95.999454499894 x_0_7*x_7_8 + 95.996374468419 x_0_7*x_7_9
      + 47.998675653319 x_0_7*x_7_10 + 47.997383887476 x_0_7*x_7_11
      - 0.001340019180 x_0_7*x_7_12 - 0.002046427104 x_0_7*x_7_13
      + 48 x_0_7*x_8_10 + 48 x_0_7*x_8_11 + 48 x_0_7*x_9_10 + 48 x_0_7*x_9_11
      + 72 x_1_2^2 + 144 x_1_2*x_1_3 + 144 x_1_2*x_1_4 + 144 x_1_2*x_1_5
      + 144 x_1_2*x_1_6 + 144 x_1_2*x_1_7 + 143.995558667887 x_1_2*x_2_4
      + 143.999995557310 x_1_2*x_2_5 + 143.997115170467 x_1_2*x_2_6
      + 143.999484107333 x_1_2*x_2_7 + 95.997863279794 x_1_2*x_2_8
      + 95.999297022690 x_1_2*x_2_9 + 144 x_1_2*x_3_4 + 144 x_1_2*x_3_5
      + 144 x_1_2*x_3_6 + 144 x_1_2*x_3_7 + 96 x_1_2*x_3_8 + 96 x_1_2*x_3_9
      + 144 x_1_2*x_4_6 + 144 x_1_2*x_4_7 + 96 x_1_2*x_4_8 + 96 x_1_2*x_4_9
      + 48 x_1_2*x_4_10 + 48 x_1_2*x_4_11 + 144 x_1_2*x_5_6 + 144 x_1_2*x_5_7
      + 96 x_1_2*x_5_8 + 96 x_1_2*x_5_9 + 48 x_1_2*x_5_10 + 48 x_1_2*x_5_11
      + 96 x_1_2*x_6_8 + 96 x_1_2*x_6_9 + 48 x_1_2*x_6_10 + 48 x_1_2*x_6_11
      + 96 x_1_2*x_7_8 + 96 x_1_2*x_7_9 + 48 x_1_2*x_7_10 + 48 x_1_2*x_7_11
      + 48 x_1_2*x_8_10 + 48 x_1_2*x_8_11 + 48 x_1_2*x_9_10 + 48 x_1_2*x_9_11
      + 72 x_1_3^2 + 144 x_1_3*x_1_4 + 144 x_1_3*x_1_5 + 144 x_1_3*x_1_6
      + 144 x_1_3*x_1_7 + 144 x_1_3*x_2_4 + 144 x_1_3*x_2_5 + 144 x_1_3*x_2_6
      + 144 x_1_3*x_2_7 + 96 x_1_3*x_2_8 + 96 x_1_3*x_2_9
      + 143.996683915699 x_1_3*x_3_4 + 143.990938364850 x_1_3*x_3_5
      + 143.996157215138 x_1_3*x_3_6 + 143.994462366951 x_1_3*x_3_7
      + 95.996764583408 x_1_3*x_3_8 + 95.996012914513 x_1_3*x_3_9
      + 144 x_1_3*x_4_6 + 144 x_1_3*x_4_7 + 96 x_1_3*x_4_8 + 96 x_1_3*x_4_9
      + 48 x_1_3*x_4_10 + 48 x_1_3*x_4_11 + 144 x_1_3*x_5_6 + 144 x_1_3*x_5_7
      + 96 x_1_3*x_5_8 + 96 x_1_3*x_5_9 + 48 x_1_3*x_5_10 + 48 x_1_3*x_5_11
      + 96 x_1_3*x_6_8 + 96 x_1_3*x_6_9 + 48 x_1_3*x_6_10 + 48 x_1_3*x_6_11
      + 96 x_1_3*x_7_8 + 96 x_1_3*x_7_9 + 48 x_1_3*x_7_10 + 48 x_1_3*x_7_11
      + 48 x_1_3*x_8_10 + 48 x_1_3*x_8_11 + 48 x_1_3*x_9_10 + 48 x_1_3*x_9_11
      + 72 x_1_4^2 + 144 x_1_4*x_1_5 + 144 x_1_4*x_1_6 + 144 x_1_4*x_1_7
      + 144 x_1_4*x_2_4 + 144 x_1_4*x_2_5 + 144 x_1_4*x_2_6 + 144 x_1_4*x_2_7
      + 96 x_1_4*x_2_8 + 96 x_1_4*x_2_9 + 144 x_1_4*x_3_4 + 144 x_1_4*x_3_5
      + 144 x_1_4*x_3_6 + 144 x_1_4*x_3_7 + 96 x_1_4*x_3_8 + 96 x_1_4*x_3_9
      + 143.995525295413 x_1_4*x_4_6 + 143.999464969017 x_1_4*x_4_7
      + 95.996720719764 x_1_4*x_4_8 + 95.998739939576 x_1_4*x_4_9
      + 47.997628034832 x_1_4*x_4_10 + 47.998651018667 x_1_4*x_4_11
      + 144 x_1_4*x_5_6 + 144 x_1_4*x_5_7 + 96 x_1_4*x_5_8 + 96 x_1_4*x_5_9
      + 48 x_1_4*x_5_10 + 48 x_1_4*x_5_11 + 96 x_1_4*x_6_8 + 96 x_1_4*x_6_9
      + 48 x_1_4*x_6_10 + 48 x_1_4*x_6_11 + 96 x_1_4*x_7_8 + 96 x_1_4*x_7_9
      + 48 x_1_4*x_7_10 + 48 x_1_4*x_7_11 + 48 x_1_4*x_8_10 + 48 x_1_4*x_8_11
      + 48 x_1_4*x_9_10 + 48 x_1_4*x_9_11 + 72 x_1_5^2 + 144 x_1_5*x_1_6
      + 144 x_1_5*x_1_7 + 144 x_1_5*x_2_4 + 144 x_1_5*x_2_5 + 144 x_1_5*x_2_6
      + 144 x_1_5*x_2_7 + 96 x_1_5*x_2_8 + 96 x_1_5*x_2_9 + 144 x_1_5*x_3_4
      + 144 x_1_5*x_3_5 + 144 x_1_5*x_3_6 + 144 x_1_5*x_3_7 + 96 x_1_5*x_3_8
      + 96 x_1_5*x_3_9 + 144 x_1_5*x_4_6 + 144 x_1_5*x_4_7 + 96 x_1_5*x_4_8
      + 96 x_1_5*x_4_9 + 48 x_1_5*x_4_10 + 48 x_1_5*x_4_11
      + 143.997870271075 x_1_5*x_5_6 + 143.994462348202 x_1_5*x_5_7
      + 95.997302287051 x_1_5*x_5_8 + 95.996012898082 x_1_5*x_5_9
      + 47.997657623460 x_1_5*x_5_10 + 47.997152108069 x_1_5*x_5_11
      + 96 x_1_5*x_6_8 + 96 x_1_5*x_6_9 + 48 x_1_5*x_6_10 + 48 x_1_5*x_6_11
      + 96 x_1_5*x_7_8 + 96 x_1_5*x_7_9 + 48 x_1_5*x_7_10 + 48 x_1_5*x_7_11
      + 48 x_1_5*x_8_10 + 48 x_1_5*x_8_11 + 48 x_1_5*x_9_10 + 48 x_1_5*x_9_11
      + 72 x_1_6^2 + 144 x_1_6*x_1_7 + 144 x_1_6*x_2_4 + 144 x_1_6*x_2_5
      + 144 x_1_6*x_2_6 + 144 x_1_6*x_2_7 + 96 x_1_6*x_2_8 + 96 x_1_6*x_2_9
      + 144 x_1_6*x_3_4 + 144 x_1_6*x_3_5 + 144 x_1_6*x_3_6 + 144 x_1_6*x_3_7
      + 96 x_1_6*x_3_8 + 96 x_1_6*x_3_9 + 144 x_1_6*x_4_6 + 144 x_1_6*x_4_7
      + 96 x_1_6*x_4_8 + 96 x_1_6*x_4_9 + 48 x_1_6*x_4_10 + 48 x_1_6*x_4_11
      + 144 x_1_6*x_5_6 + 144 x_1_6*x_5_7 + 96 x_1_6*x_5_8 + 96 x_1_6*x_5_9
      + 48 x_1_6*x_5_10 + 48 x_1_6*x_5_11 + 95.996367533206 x_1_6*x_6_8
      + 95.999443013056 x_1_6*x_6_9 + 47.997381525030 x_1_6*x_6_10
      + 47.998676547741 x_1_6*x_6_11 - 0.002047084787 x_1_6*x_6_12
      - 0.001335237912 x_1_6*x_6_13 + 96 x_1_6*x_7_8 + 96 x_1_6*x_7_9
      + 48 x_1_6*x_7_10 + 48 x_1_6*x_7_11 + 48 x_1_6*x_8_10 + 48 x_1_6*x_8_11
      + 48 x_1_6*x_9_10 + 48 x_1_6*x_9_11 + 72 x_1_7^2 + 144 x_1_7*x_2_4
      + 144 x_1_7*x_2_5 + 144 x_1_7*x_2_6 + 144 x_1_7*x_2_7 + 96 x_1_7*x_2_8
      + 96 x_1_7*x_2_9 + 144 x_1_7*x_3_4 + 144 x_1_7*x_3_5 + 144 x_1_7*x_3_6
      + 144 x_1_7*x_3_7 + 96 x_1_7*x_3_8 + 96 x_1_7*x_3_9 + 144 x_1_7*x_4_6
      + 144 x_1_7*x_4_7 + 96 x_1_7*x_4_8 + 96 x_1_7*x_4_9 + 48 x_1_7*x_4_10
      + 48 x_1_7*x_4_11 + 144 x_1_7*x_5_6 + 144 x_1_7*x_5_7 + 96 x_1_7*x_5_8
      + 96 x_1_7*x_5_9 + 48 x_1_7*x_5_10 + 48 x_1_7*x_5_11 + 96 x_1_7*x_6_8
      + 96 x_1_7*x_6_9 + 48 x_1_7*x_6_10 + 48 x_1_7*x_6_11
      + 95.998702271219 x_1_7*x_7_8 + 95.996012887485 x_1_7*x_7_9
      + 47.998016604177 x_1_7*x_7_10 + 47.997152100600 x_1_7*x_7_11
      - 0.001812876919 x_1_7*x_7_12 - 0.002214982793 x_1_7*x_7_13
      + 48 x_1_7*x_8_10 + 48 x_1_7*x_8_11 + 48 x_1_7*x_9_10 + 48 x_1_7*x_9_11
      + 72 x_2_4^2 + 144 x_2_4*x_2_5 + 144 x_2_4*x_2_6 + 144 x_2_4*x_2_7
      + 96 x_2_4*x_2_8 + 96 x_2_4*x_2_9 + 144 x_2_4*x_3_4 + 144 x_2_4*x_3_5
      + 144 x_2_4*x_3_6 + 144 x_2_4*x_3_7 + 96 x_2_4*x_3_8 + 96 x_2_4*x_3_9
      + 143.992326641013 x_2_4*x_4_6 + 143.997170351468 x_2_4*x_4_7
      + 95.995012354913 x_2_4*x_4_8 + 95.996682343159 x_2_4*x_4_9
      + 47.996674803451 x_2_4*x_4_10 + 47.997288911823 x_2_4*x_4_11
      + 144 x_2_4*x_5_6 + 144 x_2_4*x_5_7 + 96 x_2_4*x_5_8 + 96 x_2_4*x_5_9
      + 48 x_2_4*x_5_10 + 48 x_2_4*x_5_11 + 96 x_2_4*x_6_8 + 96 x_2_4*x_6_9
      + 48 x_2_4*x_6_10 + 48 x_2_4*x_6_11 + 96 x_2_4*x_7_8 + 96 x_2_4*x_7_9
      + 48 x_2_4*x_7_10 + 48 x_2_4*x_7_11 + 48 x_2_4*x_8_10 + 48 x_2_4*x_8_11
      + 48 x_2_4*x_9_10 + 48 x_2_4*x_9_11 + 72 x_2_5^2 + 144 x_2_5*x_2_6
      + 144 x_2_5*x_2_7 + 96 x_2_5*x_2_8 + 96 x_2_5*x_2_9 + 144 x_2_5*x_3_4
      + 144 x_2_5*x_3_5 + 144 x_2_5*x_3_6 + 144 x_2_5*x_3_7 + 96 x_2_5*x_3_8
      + 96 x_2_5*x_3_9 + 144 x_2_5*x_4_6 + 144 x_2_5*x_4_7 + 96 x_2_5*x_4_8
      + 96 x_2_5*x_4_9 + 48 x_2_5*x_4_10 + 48 x_2_5*x_4_11
      + 143.999991633357 x_2_5*x_5_6 + 143.996116096885 x_2_5*x_5_7
      + 95.999569081225 x_2_5*x_5_8 + 95.997334836471 x_2_5*x_5_9
      + 47.999351696621 x_2_5*x_5_10 + 47.998159476710 x_2_5*x_5_11
      + 96 x_2_5*x_6_8 + 96 x_2_5*x_6_9 + 48 x_2_5*x_6_10 + 48 x_2_5*x_6_11
      + 96 x_2_5*x_7_8 + 96 x_2_5*x_7_9 + 48 x_2_5*x_7_10 + 48 x_2_5*x_7_11
      + 48 x_2_5*x_8_10 + 48 x_2_5*x_8_11 + 48 x_2_5*x_9_10 + 48 x_2_5*x_9_11
      + 72 x_2_6^2 + 144 x_2_6*x_2_7 + 96 x_2_6*x_2_8 + 96 x_2_6*x_2_9
      + 144 x_2_6*x_3_4 + 144 x_2_6*x_3_5 + 144 x_2_6*x_3_6 + 144 x_2_6*x_3_7
      + 96 x_2_6*x_3_8 + 96 x_2_6*x_3_9 + 144 x_2_6*x_4_6 + 144 x_2_6*x_4_7
      + 96 x_2_6*x_4_8 + 96 x_2_6*x_4_9 + 48 x_2_6*x_4_10 + 48 x_2_6*x_4_11
      + 144 x_2_6*x_5_6 + 144 x_2_6*x_5_7 + 96 x_2_6*x_5_8 + 96 x_2_6*x_5_9
      + 48 x_2_6*x_5_10 + 48 x_2_6*x_5_11 + 95.995012359968 x_2_6*x_6_8
      + 95.998404386320 x_2_6*x_6_9 + 47.996674808634 x_2_6*x_6_10
      + 47.997707956389 x_2_6*x_6_11 - 0.002493935223 x_2_6*x_6_12
      - 0.002026259708 x_2_6*x_6_13 + 96 x_2_6*x_7_8 + 96 x_2_6*x_7_9
      + 48 x_2_6*x_7_10 + 48 x_2_6*x_7_11 + 48 x_2_6*x_8_10 + 48 x_2_6*x_8_11
      + 48 x_2_6*x_9_10 + 48 x_2_6*x_9_11 + 72 x_2_7^2 + 96 x_2_7*x_2_8
      + 96 x_2_7*x_2_9 + 144 x_2_7*x_3_4 + 144 x_2_7*x_3_5 + 144 x_2_7*x_3_6
      + 144 x_2_7*x_3_7 + 96 x_2_7*x_3_8 + 96 x_2_7*x_3_9 + 144 x_2_7*x_4_6
      + 144 x_2_7*x_4_7 + 96 x_2_7*x_4_8 + 96 x_2_7*x_4_9 + 48 x_2_7*x_4_10
      + 48 x_2_7*x_4_11 + 144 x_2_7*x_5_6 + 144 x_2_7*x_5_7 + 96 x_2_7*x_5_8
      + 96 x_2_7*x_5_9 + 48 x_2_7*x_5_10 + 48 x_2_7*x_5_11 + 96 x_2_7*x_6_8
      + 96 x_2_7*x_6_9 + 48 x_2_7*x_6_10 + 48 x_2_7*x_6_11
      + 95.999695153514 x_2_7*x_7_8 + 95.995971583860 x_2_7*x_7_9
      + 47.998890461060 x_2_7*x_7_10 + 47.997253299458 x_2_7*x_7_11
      - 0.001175071152 x_2_7*x_7_12 - 0.002083859101 x_2_7*x_7_13
      + 48 x_2_7*x_8_10 + 48 x_2_7*x_8_11 + 48 x_2_7*x_9_10 + 48 x_2_7*x_9_11
      + 32 x_2_8^2 + 64 x_2_8*x_2_9 + 96 x_2_8*x_3_4 + 96 x_2_8*x_3_5
      + 96 x_2_8*x_3_6 + 96 x_2_8*x_3_7 + 64 x_2_8*x_3_8 + 64 x_2_8*x_3_9
      + 96 x_2_8*x_4_6 + 96 x_2_8*x_4_7 + 64 x_2_8*x_4_8 + 64 x_2_8*x_4_9
      + 32 x_2_8*x_4_10 + 32 x_2_8*x_4_11 + 96 x_2_8*x_5_6 + 96 x_2_8*x_5_7
      + 64 x_2_8*x_5_8 + 64 x_2_8*x_5_9 + 32 x_2_8*x_5_10 + 32 x_2_8*x_5_11
      + 64 x_2_8*x_6_8 + 64 x_2_8*x_6_9 + 32 x_2_8*x_6_10 + 32 x_2_8*x_6_11
      + 64 x_2_8*x_7_8 + 64 x_2_8*x_7_9 + 32 x_2_8*x_7_10 + 32 x_2_8*x_7_11
      + 31.996674815422 x_2_8*x_8_10 + 31.998583888126 x_2_8*x_8_11
      - 0.002493928054 x_2_8*x_8_12 - 0.001754089813 x_2_8*x_8_13
      + 32 x_2_8*x_9_10 + 32 x_2_8*x_9_11 + 32 x_2_9^2 + 96 x_2_9*x_3_4
      + 96 x_2_9*x_3_5 + 96 x_2_9*x_3_6 + 96 x_2_9*x_3_7 + 64 x_2_9*x_3_8
      + 64 x_2_9*x_3_9 + 96 x_2_9*x_4_6 + 96 x_2_9*x_4_7 + 64 x_2_9*x_4_8
      + 64 x_2_9*x_4_9 + 32 x_2_9*x_4_10 + 32 x_2_9*x_4_11 + 96 x_2_9*x_5_6
      + 96 x_2_9*x_5_7 + 64 x_2_9*x_5_8 + 64 x_2_9*x_5_9 + 32 x_2_9*x_5_10
      + 32 x_2_9*x_5_11 + 64 x_2_9*x_6_8 + 64 x_2_9*x_6_9 + 32 x_2_9*x_6_10
      + 32 x_2_9*x_6_11 + 64 x_2_9*x_7_8 + 64 x_2_9*x_7_9 + 32 x_2_9*x_7_10
      + 32 x_2_9*x_7_11 + 32 x_2_9*x_8_10 + 32 x_2_9*x_8_11
      + 31.999324474558 x_2_9*x_9_10 + 31.996995187025 x_2_9*x_9_11
      - 0.001156177151 x_2_9*x_9_12 - 0.002273778717 x_2_9*x_9_13 + 72 x_3_4^2
      + 144 x_3_4*x_3_5 + 144 x_3_4*x_3_6 + 144 x_3_4*x_3_7 + 96 x_3_4*x_3_8
      + 96 x_3_4*x_3_9 + 143.996140281354 x_3_4*x_4_6
      + 143.999991869295 x_3_4*x_4_7 + 95.997352208733 x_3_4*x_4_8
      + 95.999577609085 x_3_4*x_4_9 + 47.998174510976 x_3_4*x_4_10
      + 47.999364838386 x_3_4*x_4_11 + 144 x_3_4*x_5_6 + 144 x_3_4*x_5_7
      + 96 x_3_4*x_5_8 + 96 x_3_4*x_5_9 + 48 x_3_4*x_5_10 + 48 x_3_4*x_5_11
      + 96 x_3_4*x_6_8 + 96 x_3_4*x_6_9 + 48 x_3_4*x_6_10 + 48 x_3_4*x_6_11
      + 96 x_3_4*x_7_8 + 96 x_3_4*x_7_9 + 48 x_3_4*x_7_10 + 48 x_3_4*x_7_11
      + 48 x_3_4*x_8_10 + 48 x_3_4*x_8_11 + 48 x_3_4*x_9_10 + 48 x_3_4*x_9_11
      + 72 x_3_5^2 + 144 x_3_5*x_3_6 + 144 x_3_5*x_3_7 + 96 x_3_5*x_3_8
      + 96 x_3_5*x_3_9 + 144 x_3_5*x_4_6 + 144 x_3_5*x_4_7 + 96 x_3_5*x_4_8
      + 96 x_3_5*x_4_9 + 48 x_3_5*x_4_10 + 48 x_3_5*x_4_11
      + 143.997187161442 x_3_5*x_5_6 + 143.992332330104 x_3_5*x_5_7
      + 95.996678357712 x_3_5*x_5_8 + 95.995016045496 x_3_5*x_5_9
      + 47.997280872157 x_3_5*x_5_10 + 47.996677418338 x_3_5*x_5_11
      + 96 x_3_5*x_6_8 + 96 x_3_5*x_6_9 + 48 x_3_5*x_6_10 + 48 x_3_5*x_6_11
      + 96 x_3_5*x_7_8 + 96 x_3_5*x_7_9 + 48 x_3_5*x_7_10 + 48 x_3_5*x_7_11
      + 48 x_3_5*x_8_10 + 48 x_3_5*x_8_11 + 48 x_3_5*x_9_10 + 48 x_3_5*x_9_11
      + 72 x_3_6^2 + 144 x_3_6*x_3_7 + 96 x_3_6*x_3_8 + 96 x_3_6*x_3_9
      + 144 x_3_6*x_4_6 + 144 x_3_6*x_4_7 + 96 x_3_6*x_4_8 + 96 x_3_6*x_4_9
      + 48 x_3_6*x_4_10 + 48 x_3_6*x_4_11 + 144 x_3_6*x_5_6 + 144 x_3_6*x_5_7
      + 96 x_3_6*x_5_8 + 96 x_3_6*x_5_9 + 48 x_3_6*x_5_10 + 48 x_3_6*x_5_11
      + 95.995965729283 x_3_6*x_6_8 + 95.999687256666 x_3_6*x_6_9
      + 47.997253682270 x_3_6*x_6_10 + 47.998893834105 x_3_6*x_6_11
      - 0.002081706572 x_3_6*x_6_12 - 0.001167783105 x_3_6*x_6_13
      + 96 x_3_6*x_7_8 + 96 x_3_6*x_7_9 + 48 x_3_6*x_7_10 + 48 x_3_6*x_7_11
      + 48 x_3_6*x_8_10 + 48 x_3_6*x_8_11 + 48 x_3_6*x_9_10 + 48 x_3_6*x_9_11
      + 72 x_3_7^2 + 96 x_3_7*x_3_8 + 96 x_3_7*x_3_9 + 144 x_3_7*x_4_6
      + 144 x_3_7*x_4_7 + 96 x_3_7*x_4_8 + 96 x_3_7*x_4_9 + 48 x_3_7*x_4_10
      + 48 x_3_7*x_4_11 + 144 x_3_7*x_5_6 + 144 x_3_7*x_5_7 + 96 x_3_7*x_5_8
      + 96 x_3_7*x_5_9 + 48 x_3_7*x_5_10 + 48 x_3_7*x_5_11 + 96 x_3_7*x_6_8
      + 96 x_3_7*x_6_9 + 48 x_3_7*x_6_10 + 48 x_3_7*x_6_11
      + 95.998424241289 x_3_7*x_7_8 + 95.995016039347 x_3_7*x_7_9
      + 47.997705319112 x_3_7*x_7_10 + 47.996677414781 x_3_7*x_7_11
      - 0.002032152729 x_3_7*x_7_12 - 0.002491878277 x_3_7*x_7_13
      + 48 x_3_7*x_8_10 + 48 x_3_7*x_8_11 + 48 x_3_7*x_9_10 + 48 x_3_7*x_9_11
      + 32 x_3_8^2 + 64 x_3_8*x_3_9 + 96 x_3_8*x_4_6 + 96 x_3_8*x_4_7
      + 64 x_3_8*x_4_8 + 64 x_3_8*x_4_9 + 32 x_3_8*x_4_10 + 32 x_3_8*x_4_11
      + 96 x_3_8*x_5_6 + 96 x_3_8*x_5_7 + 64 x_3_8*x_5_8 + 64 x_3_8*x_5_9
      + 32 x_3_8*x_5_10 + 32 x_3_8*x_5_11 + 64 x_3_8*x_6_8 + 64 x_3_8*x_6_9
      + 32 x_3_8*x_6_10 + 32 x_3_8*x_6_11 + 64 x_3_8*x_7_8 + 64 x_3_8*x_7_9
      + 32 x_3_8*x_7_10 + 32 x_3_8*x_7_11 + 31.996992762177 x_3_8*x_8_10
      + 31.999319020044 x_3_8*x_8_11 - 0.002274155394 x_3_8*x_8_12
      - 0.001152166031 x_3_8*x_8_13 + 32 x_3_8*x_9_10 + 32 x_3_8*x_9_11
      + 32 x_3_9^2 + 96 x_3_9*x_4_6 + 96 x_3_9*x_4_7 + 64 x_3_9*x_4_8
      + 64 x_3_9*x_4_9 + 32 x_3_9*x_4_10 + 32 x_3_9*x_4_11 + 96 x_3_9*x_5_6
      + 96 x_3_9*x_5_7 + 64 x_3_9*x_5_8 + 64 x_3_9*x_5_9 + 32 x_3_9*x_5_10
      + 32 x_3_9*x_5_11 + 64 x_3_9*x_6_8 + 64 x_3_9*x_6_9 + 32 x_3_9*x_6_10
      + 32 x_3_9*x_6_11 + 64 x_3_9*x_7_8 + 64 x_3_9*x_7_9 + 32 x_3_9*x_7_10
      + 32 x_3_9*x_7_11 + 32 x_3_9*x_8_10 + 32 x_3_9*x_8_11
      + 31.998591062775 x_3_9*x_9_10 + 31.996677416152 x_3_9*x_9_11
      - 0.001758534548 x_3_9*x_9_12 - 0.002491875775 x_3_9*x_9_13 + 72 x_4_6^2
      + 144 x_4_6*x_4_7 + 96 x_4_6*x_4_8 + 96 x_4_6*x_4_9 + 48 x_4_6*x_4_10
      + 48 x_4_6*x_4_11 + 144 x_4_6*x_5_6 + 144 x_4_6*x_5_7 + 96 x_4_6*x_5_8
      + 96 x_4_6*x_5_9 + 48 x_4_6*x_5_10 + 48 x_4_6*x_5_11
      + 95.992874760016 x_4_6*x_6_8 + 95.997855235138 x_4_6*x_6_9
      + 47.995843455799 x_4_6*x_6_10 + 47.997178617528 x_4_6*x_6_11
      - 0.002934085916 x_4_6*x_6_12 - 0.002368885199 x_4_6*x_6_13
      + 96 x_4_6*x_7_8 + 96 x_4_6*x_7_9 + 48 x_4_6*x_7_10 + 48 x_4_6*x_7_11
      + 48 x_4_6*x_8_10 + 48 x_4_6*x_8_11 + 48 x_4_6*x_9_10 + 48 x_4_6*x_9_11
      + 72 x_4_7^2 + 96 x_4_7*x_4_8 + 96 x_4_7*x_4_9 + 48 x_4_7*x_4_10
      + 48 x_4_7*x_4_11 + 144 x_4_7*x_5_6 + 144 x_4_7*x_5_7 + 96 x_4_7*x_5_8
      + 96 x_4_7*x_5_9 + 48 x_4_7*x_5_10 + 48 x_4_7*x_5_11 + 96 x_4_7*x_6_8
      + 96 x_4_7*x_6_9 + 48 x_4_7*x_6_10 + 48 x_4_7*x_6_11
      + 95.999993832368 x_4_7*x_7_8 + 95.996449141313 x_4_7*x_7_9
      + 47.999611628897 x_4_7*x_7_10 + 47.997777966588 x_4_7*x_7_11
      - 0.000548593286 x_4_7*x_7_12 - 0.001617213993 x_4_7*x_7_13
      + 48 x_4_7*x_8_10 + 48 x_4_7*x_8_11 + 48 x_4_7*x_9_10 + 48 x_4_7*x_9_11
      + 32 x_4_8^2 + 64 x_4_8*x_4_9 + 32 x_4_8*x_4_10 + 32 x_4_8*x_4_11
      + 96 x_4_8*x_5_6 + 96 x_4_8*x_5_7 + 64 x_4_8*x_5_8 + 64 x_4_8*x_5_9
      + 32 x_4_8*x_5_10 + 32 x_4_8*x_5_11 + 64 x_4_8*x_6_8 + 64 x_4_8*x_6_9
      + 32 x_4_8*x_6_10 + 32 x_4_8*x_6_11 + 64 x_4_8*x_7_8 + 64 x_4_8*x_7_9
      + 32 x_4_8*x_7_10 + 32 x_4_8*x_7_11 + 31.995843463574 x_4_8*x_8_10
      + 31.998274607346 x_4_8*x_8_11 - 0.002934078101 x_4_8*x_8_12
      - 0.002044436614 x_4_8*x_8_13 + 32 x_4_8*x_9_10 + 32 x_4_8*x_9_11
      + 32 x_4_9^2 + 32 x_4_9*x_4_10 + 32 x_4_9*x_4_11 + 96 x_4_9*x_5_6
      + 96 x_4_9*x_5_7 + 64 x_4_9*x_5_8 + 64 x_4_9*x_5_9 + 32 x_4_9*x_5_10
      + 32 x_4_9*x_5_11 + 64 x_4_9*x_6_8 + 64 x_4_9*x_6_9 + 32 x_4_9*x_6_10
      + 32 x_4_9*x_6_11 + 64 x_4_9*x_7_8 + 64 x_4_9*x_7_9 + 32 x_4_9*x_7_10
      + 32 x_4_9*x_7_11 + 32 x_4_9*x_8_10 + 32 x_4_9*x_8_11
      + 31.999587409622 x_4_9*x_9_10 + 31.996724544747 x_4_9*x_9_11
      - 0.000930572501 x_4_9*x_9_12 - 0.002359742008 x_4_9*x_9_13 + 8 x_4_10^2
      + 16 x_4_10*x_4_11 + 48 x_4_10*x_5_6 + 48 x_4_10*x_5_7 + 32 x_4_10*x_5_8
      + 32 x_4_10*x_5_9 + 16 x_4_10*x_5_10 + 16 x_4_10*x_5_11 + 32 x_4_10*x_6_8
      + 32 x_4_10*x_6_9 + 16 x_4_10*x_6_10 + 16 x_4_10*x_6_11 + 32 x_4_10*x_7_8
      + 32 x_4_10*x_7_9 + 16 x_4_10*x_7_10 + 16 x_4_10*x_7_11 + 16 x_4_10*x_8_10
      + 16 x_4_10*x_8_11 + 16 x_4_10*x_9_10 + 16 x_4_10*x_9_11
      - 0.002934078537 x_4_10*x_10_12 - 0.001038037170 x_4_10*x_10_13
      + 8 x_4_11^2 + 48 x_4_11*x_5_6 + 48 x_4_11*x_5_7 + 32 x_4_11*x_5_8
      + 32 x_4_11*x_5_9 + 16 x_4_11*x_5_10 + 16 x_4_11*x_5_11 + 32 x_4_11*x_6_8
      + 32 x_4_11*x_6_9 + 16 x_4_11*x_6_10 + 16 x_4_11*x_6_11 + 32 x_4_11*x_7_8
      + 32 x_4_11*x_7_9 + 16 x_4_11*x_7_10 + 16 x_4_11*x_7_11 + 16 x_4_11*x_8_10
      + 16 x_4_11*x_8_11 + 16 x_4_11*x_9_10 + 16 x_4_11*x_9_11
      - 0.000444731402 x_4_11*x_11_12 - 0.002658218835 x_4_11*x_11_13
      + 72 x_5_6^2 + 144 x_5_6*x_5_7 + 96 x_5_6*x_5_8 + 96 x_5_6*x_5_9
      + 48 x_5_6*x_5_10 + 48 x_5_6*x_5_11 + 95.996463842879 x_5_6*x_6_8
      + 95.999994167026 x_5_6*x_6_9 + 47.997793631997 x_5_6*x_6_10
      + 47.999619797545 x_5_6*x_6_11 - 0.001603214105 x_5_6*x_6_12
      - 0.000536667153 x_5_6*x_6_13 + 96 x_5_6*x_7_8 + 96 x_5_6*x_7_9
      + 48 x_5_6*x_7_10 + 48 x_5_6*x_7_11 + 48 x_5_6*x_8_10 + 48 x_5_6*x_8_11
      + 48 x_5_6*x_9_10 + 48 x_5_6*x_9_11 + 72 x_5_7^2 + 96 x_5_7*x_5_8
      + 96 x_5_7*x_5_9 + 48 x_5_7*x_5_10 + 48 x_5_7*x_5_11 + 96 x_5_7*x_6_8
      + 96 x_5_7*x_6_9 + 48 x_5_7*x_6_10 + 48 x_5_7*x_6_11
      + 95.997882730632 x_5_7*x_7_8 + 95.992880132827 x_5_7*x_7_9
      + 47.997175009329 x_5_7*x_7_10 + 47.995846798096 x_5_7*x_7_11
      - 0.002375977450 x_5_7*x_7_12 - 0.002931604668 x_5_7*x_7_13
      + 48 x_5_7*x_8_10 + 48 x_5_7*x_8_11 + 48 x_5_7*x_9_10 + 48 x_5_7*x_9_11
      + 32 x_5_8^2 + 64 x_5_8*x_5_9 + 32 x_5_8*x_5_10 + 32 x_5_8*x_5_11
      + 64 x_5_8*x_6_8 + 64 x_5_8*x_6_9 + 32 x_5_8*x_6_10 + 32 x_5_8*x_6_11
      + 64 x_5_8*x_7_8 + 64 x_5_8*x_7_9 + 32 x_5_8*x_7_10 + 32 x_5_8*x_7_11
      + 31.996725979408 x_5_8*x_8_10 + 31.999584370473 x_5_8*x_8_11
      - 0.002356263884 x_5_8*x_8_12 - 0.000924185774 x_5_8*x_8_13
      + 32 x_5_8*x_9_10 + 32 x_5_8*x_9_11 + 32 x_5_9^2 + 32 x_5_9*x_5_10
      + 32 x_5_9*x_5_11 + 64 x_5_9*x_6_8 + 64 x_5_9*x_6_9 + 32 x_5_9*x_6_10
      + 32 x_5_9*x_6_11 + 64 x_5_9*x_7_8 + 64 x_5_9*x_7_9 + 32 x_5_9*x_7_10
      + 32 x_5_9*x_7_11 + 32 x_5_9*x_8_10 + 32 x_5_9*x_8_11
      + 31.998283214272 x_5_9*x_9_10 + 31.995846801534 x_5_9*x_9_11
      - 0.002050044430 x_5_9*x_9_12 - 0.002931599970 x_5_9*x_9_13 + 8 x_5_10^2
      + 16 x_5_10*x_5_11 + 32 x_5_10*x_6_8 + 32 x_5_10*x_6_9 + 16 x_5_10*x_6_10
      + 16 x_5_10*x_6_11 + 32 x_5_10*x_7_8 + 32 x_5_10*x_7_9 + 16 x_5_10*x_7_10
      + 16 x_5_10*x_7_11 + 16 x_5_10*x_8_10 + 16 x_5_10*x_8_11
      + 16 x_5_10*x_9_10 + 16 x_5_10*x_9_11 - 0.002660910066 x_5_10*x_10_12
      - 0.000451607126 x_5_10*x_10_13 + 8 x_5_11^2 + 32 x_5_11*x_6_8
      + 32 x_5_11*x_6_9 + 16 x_5_11*x_6_10 + 16 x_5_11*x_6_11 + 32 x_5_11*x_7_8
      + 32 x_5_11*x_7_9 + 16 x_5_11*x_7_10 + 16 x_5_11*x_7_11 + 16 x_5_11*x_8_10
      + 16 x_5_11*x_8_11 + 16 x_5_11*x_9_10 + 16 x_5_11*x_9_11
      - 0.001028172294 x_5_11*x_11_12 - 0.002931598175 x_5_11*x_11_13
      + 32 x_6_8^2 + 64 x_6_8*x_6_9 + 32 x_6_8*x_6_10 + 32 x_6_8*x_6_11
      + 64 x_6_8*x_7_8 + 64 x_6_8*x_7_9 + 32 x_6_8*x_7_10 + 32 x_6_8*x_7_11
      + 31.994131881811 x_6_8*x_8_10 + 31.997686477156 x_6_8*x_8_11
      - 0.003694823067 x_6_8*x_8_12 - 0.002532678297 x_6_8*x_8_13
      + 32 x_6_8*x_9_10 + 32 x_6_8*x_9_11 + 32 x_6_9^2 + 32 x_6_9*x_6_10
      + 32 x_6_9*x_6_11 + 64 x_6_9*x_7_8 + 64 x_6_9*x_7_9 + 32 x_6_9*x_7_10
      + 32 x_6_9*x_7_11 + 32 x_6_9*x_8_10 + 32 x_6_9*x_8_11
      + 31.999999949822 x_6_9*x_9_10 + 31.997446299747 x_6_9*x_9_11
      - 0.000231397170 x_6_9*x_9_12 - 0.001716163129 x_6_9*x_9_13 + 8 x_6_10^2
      + 16 x_6_10*x_6_11 + 32 x_6_10*x_7_8 + 32 x_6_10*x_7_9 + 16 x_6_10*x_7_10
      + 16 x_6_10*x_7_11 + 16 x_6_10*x_8_10 + 16 x_6_10*x_8_11
      + 16 x_6_10*x_9_10 + 16 x_6_10*x_9_11 - 0.003694827419 x_6_10*x_10_12
      - 0.001268920556 x_6_10*x_10_13 + 8 x_6_11^2 + 32 x_6_11*x_7_8
      + 32 x_6_11*x_7_9 + 16 x_6_11*x_7_10 + 16 x_6_11*x_7_11 + 16 x_6_11*x_8_10
      + 16 x_6_11*x_8_11 + 16 x_6_11*x_9_10 + 16 x_6_11*x_9_11
      - 0.000246421661 x_6_11*x_11_12 - 0.002941536064 x_6_11*x_11_13
      + 32 x_7_8^2 + 64 x_7_8*x_7_9 + 32 x_7_8*x_7_10 + 32 x_7_8*x_7_11
      + 31.997475492710 x_7_8*x_8_10 + 31.999999867477 x_7_8*x_8_11
      - 0.001693570365 x_7_8*x_8_12 - 0.000221808858 x_7_8*x_8_13
      + 32 x_7_8*x_9_10 + 32 x_7_8*x_9_11 + 32 x_7_9^2 + 32 x_7_9*x_7_10
      + 32 x_7_9*x_7_11 + 32 x_7_9*x_8_10 + 32 x_7_9*x_8_11
      + 31.997694170152 x_7_9*x_9_10 + 31.994136664265 x_7_9*x_9_11
      - 0.002542538664 x_7_9*x_9_12 - 0.003691632438 x_7_9*x_9_13 + 8 x_7_10^2
      + 16 x_7_10*x_7_11 + 16 x_7_10*x_8_10 + 16 x_7_10*x_8_11
      + 16 x_7_10*x_9_10 + 16 x_7_10*x_9_11 - 0.002941056576 x_7_10*x_10_12
      - 0.000250786124 x_7_10*x_10_13 + 8 x_7_11^2 + 16 x_7_11*x_8_10
      + 16 x_7_11*x_8_11 + 16 x_7_11*x_9_10 + 16 x_7_11*x_9_11
      - 0.001257005994 x_7_11*x_11_12 - 0.003691630984 x_7_11*x_11_13
      + 8 x_8_10^2 + 16 x_8_10*x_8_11 + 16 x_8_10*x_9_10 + 16 x_8_10*x_9_11
      - 0.004988200824 x_8_10*x_10_12 - 0.001633598992 x_8_10*x_10_13
      + 8 x_8_11^2 + 16 x_8_11*x_9_10 + 16 x_8_11*x_9_11
      - 0.000001710301 x_8_11*x_11_12 - 0.002652033811 x_8_11*x_11_13
      + 8 x_9_10^2 + 16 x_9_10*x_9_11 - 0.002635387841 x_9_10*x_10_12
      - 0.000001765710 x_9_10*x_10_13 + 8 x_9_11^2
      - 0.001616464102 x_9_11*x_11_12 - 0.004983649327 x_9_11*x_11_13 ]/2 + 196
Subject To
 c1: x_0_2 + x_0_3 + x_0_4 + x_0_5 + x_0_6 + x_0_7 = 1
 c2: x_1_2 + x_1_3 + x_1_4 + x_1_5 + x_1_6 + x_1_7 = 1
 c3: x_2_4 + x_2_5 + x_2_6 + x_2_7 + x_2_8 + x_2_9 = 1
 c4: x_3_4 + x_3_5 + x_3_6 + x_3_7 + x_3_8 + x_3_9 = 1
 c5: x_4_6 + x_4_7 + x_4_8 + x_4_9 + x_4_10 + x_4_11 = 1
 c6: x_5_6 + x_5_7 + x_5_8 + x_5_9 + x_5_10 + x_5_11 = 1
 c7: x_6_8 + x_6_9 + x_6_10 + x_6_11 + x_6_12 + x_6_13 = 1
 c8: x_7_8 + x_7_9 + x_7_10 + x_7_11 + x_7_12 + x_7_13 = 1
 c9: x_8_10 + x_8_11 + x_8_12 + x_8_13 = 1
 c10: x_9_10 + x_9_11 + x_9_12 + x_9_13 = 1
 c11: x_10_12 + x_10_13 = 1
 c12: x_11_12 + x_11_13 = 1
 c13: x_0_2 + x_1_2 = 1
 c14: x_0_3 + x_1_3 = 1
 c15: x_0_4 + x_1_4 + x_2_4 + x_3_4 = 1
 c16: x_0_5 + x_1_5 + x_2_5 + x_3_5 = 1
 c17: x_0_6 + x_1_6 + x_2_6 + x_3_6 + x_4_6 + x_5_6 = 1
 c18: x_0_7 + x_1_7 + x_2_7 + x_3_7 + x_4_7 + x_5_7 = 1
 c19: x_2_8 + x_3_8 + x_4_8 + x_5_8 + x_6_8 + x_7_8 = 1
 c20: x_2_9 + x_3_9 + x_4_9 + x_5_9 + x_6_9 + x_7_9 = 1
 c21: x_4_10 + x_5_10 + x_6_10 + x_7_10 + x_8_10 + x_9_10 = 1
 c22: x_4_11 + x_5_11 + x_6_11 + x_7_11 + x_8_11 + x_9_11 = 1
 c23: x_6_12 + x_7_12 + x_8_12 + x_9_12 + x_10_12 + x_11_12 = 1
 c24: x_6_13 + x_7_13 + x_8_13 + x_9_13 + x_10_13 + x_11_13 = 1
 c25: x_0_2 + x_1_2 - x_2_4 - x_2_5 - x_2_6 - x_2_7 - x_2_8 - x_2_9 = 0
 c26: x_0_3 + x_1_3 - x_3_4 - x_3_5 - x_3_6 - x_3_7 - x_3_8 - x_3_9 = 0
 c27: x_0_4 + x_1_4 + x_2_4 + x_3_4 - x_4_6 - x_4_7 - x_4_8 - x_4_9 - x_4_10
      - x_4_11 = 0
 c28: x_0_5 + x_1_5 + x_2_5 + x_3_5 - x_5_6 - x_5_7 - x_5_8 - x_5_9 - x_5_10
      - x_5_11 = 0
 c29: x_0_6 + x_1_6 + x_2_6 + x_3_6 + x_4_6 + x_5_6 - x_6_8 - x_6_9 - x_6_10
      - x_6_11 - x_6_12 - x_6_13 = 0
 c30: x_0_7 + x_1_7 + x_2_7 + x_3_7 + x_4_7 + x_5_7 - x_7_8 - x_7_9 - x_7_10
      - x_7_11 - x_7_12 - x_7_13 = 0
 c31: x_0_2 + x_1_2 - x_2_4 - x_2_5 - x_2_6 - x_2_7 - x_2_8 - x_2_9 = 0
 c32: x_0_3 + x_1_3 - x_3_4 - x_3_5 - x_3_6 - x_3_7 - x_3_8 - x_3_9 = 0
 c33: x_0_4 + x_1_4 + x_2_4 + x_3_4 - x_4_6 - x_4_7 - x_4_8 - x_4_9 - x_4_10
      - x_4_11 = 0
 c34: x_0_5 + x_1_5 + x_2_5 + x_3_5 - x_5_6 - x_5_7 - x_5_8 - x_5_9 - x_5_10
      - x_5_11 = 0
 c35: x_0_6 + x_1_6 + x_2_6 + x_3_6 + x_4_6 + x_5_6 - x_6_8 - x_6_9 - x_6_10
      - x_6_11 - x_6_12 - x_6_13 = 0
 c36: x_0_7 + x_1_7 + x_2_7 + x_3_7 + x_4_7 + x_5_7 - x_7_8 - x_7_9 - x_7_10
      - x_7_11 - x_7_12 - x_7_13 = 0
 c37: x_0_4 + x_1_4 + x_2_4 + x_3_4 - x_4_6 - x_4_7 - x_4_8 - x_4_9 - x_4_10
      - x_4_11 = 0
 c38: x_0_5 + x_1_5 + x_2_5 + x_3_5 - x_5_6 - x_5_7 - x_5_8 - x_5_9 - x_5_10
      - x_5_11 = 0
 c39: x_0_6 + x_1_6 + x_2_6 + x_3_6 + x_4_6 + x_5_6 - x_6_8 - x_6_9 - x_6_10
      - x_6_11 - x_6_12 - x_6_13 = 0
 c40: x_0_7 + x_1_7 + x_2_7 + x_3_7 + x_4_7 + x_5_7 - x_7_8 - x_7_9 - x_7_10
      - x_7_11 - x_7_12 - x_7_13 = 0
 c41: x_2_8 + x_3_8 + x_4_8 + x_5_8 + x_6_8 + x_7_8 - x_8_10 - x_8_11 - x_8_12
      - x_8_13 = 0
 c42: x_2_9 + x_3_9 + x_4_9 + x_5_9 + x_6_9 + x_7_9 - x_9_10 - x_9_11 - x_9_12
      - x_9_13 = 0
 c43: x_0_4 + x_1_4 + x_2_4 + x_3_4 - x_4_6 - x_4_7 - x_4_8 - x_4_9 - x_4_10
      - x_4_11 = 0
 c44: x_0_5 + x_1_5 + x_2_5 + x_3_5 - x_5_6 - x_5_7 - x_5_8 - x_5_9 - x_5_10
      - x_5_11 = 0
 c45: x_0_6 + x_1_6 + x_2_6 + x_3_6 + x_4_6 + x_5_6 - x_6_8 - x_6_9 - x_6_10
      - x_6_11 - x_6_12 - x_6_13 = 0
 c46: x_0_7 + x_1_7 + x_2_7 + x_3_7 + x_4_7 + x_5_7 - x_7_8 - x_7_9 - x_7_10
      - x_7_11 - x_7_12 - x_7_13 = 0
 c47: x_2_8 + x_3_8 + x_4_8 + x_5_8 + x_6_8 + x_7_8 - x_8_10 - x_8_11 - x_8_12
      - x_8_13 = 0
 c48: x_2_9 + x_3_9 + x_4_9 + x_5_9 + x_6_9 + x_7_9 - x_9_10 - x_9_11 - x_9_12
      - x_9_13 = 0
 c49: x_0_6 + x_1_6 + x_2_6 + x_3_6 + x_4_6 + x_5_6 - x_6_8 - x_6_9 - x_6_10
      - x_6_11 - x_6_12 - x_6_13 = 0
 c50: x_0_7 + x_1_7 + x_2_7 + x_3_7 + x_4_7 + x_5_7 - x_7_8 - x_7_9 - x_7_10
      - x_7_11 - x_7_12 - x_7_13 = 0
 c51: x_2_8 + x_3_8 + x_4_8 + x_5_8 + x_6_8 + x_7_8 - x_8_10 - x_8_11 - x_8_12
      - x_8_13 = 0
 c52: x_2_9 + x_3_9 + x_4_9 + x_5_9 + x_6_9 + x_7_9 - x_9_10 - x_9_11 - x_9_12
      - x_9_13 = 0
 c53: x_4_10 + x_5_10 + x_6_10 + x_7_10 + x_8_10 + x_9_10 - x_10_12 - x_10_13
       = 0
 c54: x_4_11 + x_5_11 + x_6_11 + x_7_11 + x_8_11 + x_9_11 - x_11_12 - x_11_13
       = 0
 c55: x_0_6 + x_1_6 + x_2_6 + x_3_6 + x_4_6 + x_5_6 - x_6_8 - x_6_9 - x_6_10
      - x_6_11 - x_6_12 - x_6_13 = 0
 c56: x_0_7 + x_1_7 + x_2_7 + x_3_7 + x_4_7 + x_5_7 - x_7_8 - x_7_9 - x_7_10
      - x_7_11 - x_7_12 - x_7_13 = 0
 c57: x_2_8 + x_3_8 + x_4_8 + x_5_8 + x_6_8 + x_7_8 - x_8_10 - x_8_11 - x_8_12
      - x_8_13 = 0
 c58: x_2_9 + x_3_9 + x_4_9 + x_5_9 + x_6_9 + x_7_9 - x_9_10 - x_9_11 - x_9_12
      - x_9_13 = 0
 c59: x_4_10 + x_5_10 + x_6_10 + x_7_10 + x_8_10 + x_9_10 - x_10_12 - x_10_13
       = 0
 c60: x_4_11 + x_5_11 + x_6_11 + x_7_11 + x_8_11 + x_9_11 - x_11_12 - x_11_13
       = 0
 c61: x_2_8 + x_3_8 + x_4_8 + x_5_8 + x_6_8 + x_7_8 - x_8_10 - x_8_11 - x_8_12
      - x_8_13 = 0
 c62: x_2_9 + x_3_9 + x_4_9 + x_5_9 + x_6_9 + x_7_9 - x_9_10 - x_9_11 - x_9_12
      - x_9_13 = 0
 c63: x_4_10 + x_5_10 + x_6_10 + x_7_10 + x_8_10 + x_9_10 - x_10_12 - x_10_13
       = 0
 c64: x_4_11 + x_5_11 + x_6_11 + x_7_11 + x_8_11 + x_9_11 - x_11_12 - x_11_13
       = 0
 c65: x_2_8 + x_3_8 + x_4_8 + x_5_8 + x_6_8 + x_7_8 - x_8_10 - x_8_11 - x_8_12
      - x_8_13 = 0
 c66: x_2_9 + x_3_9 + x_4_9 + x_5_9 + x_6_9 + x_7_9 - x_9_10 - x_9_11 - x_9_12
      - x_9_13 = 0
 c67: x_4_10 + x_5_10 + x_6_10 + x_7_10 + x_8_10 + x_9_10 - x_10_12 - x_10_13
       = 0
 c68: x_4_11 + x_5_11 + x_6_11 + x_7_11 + x_8_11 + x_9_11 - x_11_12 - x_11_13
       = 0
 c69: x_4_10 + x_5_10 + x_6_10 + x_7_10 + x_8_10 + x_9_10 - x_10_12 - x_10_13
       = 0
 c70: x_4_11 + x_5_11 + x_6_11 + x_7_11 + x_8_11 + x_9_11 - x_11_12 - x_11_13
       = 0
 c71: x_4_10 + x_5_10 + x_6_10 + x_7_10 + x_8_10 + x_9_10 - x_10_12 - x_10_13
       = 0
 c72: x_4_11 + x_5_11 + x_6_11 + x_7_11 + x_8_11 + x_9_11 - x_11_12 - x_11_13
       = 0

Bounds
 0 <= x_0_2 <= 1
 0 <= x_0_3 <= 1
 0 <= x_0_4 <= 1
 0 <= x_0_5 <= 1
 0 <= x_0_6 <= 1
 0 <= x_0_7 <= 1
 0 <= x_1_2 <= 1
 0 <= x_1_3 <= 1
 0 <= x_1_4 <= 1
 0 <= x_1_5 <= 1
 0 <= x_1_6 <= 1
 0 <= x_1_7 <= 1
 0 <= x_2_4 <= 1
 0 <= x_2_5 <= 1
 0 <= x_2_6 <= 1
 0 <= x_2_7 <= 1
 0 <= x_2_8 <= 1
 0 <= x_2_9 <= 1
 0 <= x_3_4 <= 1
 0 <= x_3_5 <= 1
 0 <= x_3_6 <= 1
 0 <= x_3_7 <= 1
 0 <= x_3_8 <= 1
 0 <= x_3_9 <= 1
 0 <= x_4_6 <= 1
 0 <= x_4_7 <= 1
 0 <= x_4_8 <= 1
 0 <= x_4_9 <= 1
 0 <= x_4_10 <= 1
 0 <= x_4_11 <= 1
 0 <= x_5_6 <= 1
 0 <= x_5_7 <= 1
 0 <= x_5_8 <= 1
 0 <= x_5_9 <= 1
 0 <= x_5_10 <= 1
 0 <= x_5_11 <= 1
 0 <= x_6_8 <= 1
 0 <= x_6_9 <= 1
 0 <= x_6_10 <= 1
 0 <= x_6_11 <= 1
 0 <= x_6_12 <= 1
 0 <= x_6_13 <= 1
 0 <= x_7_8 <= 1
 0 <= x_7_9 <= 1
 0 <= x_7_10 <= 1
 0 <= x_7_11 <= 1
 0 <= x_7_12 <= 1
 0 <= x_7_13 <= 1
 0 <= x_8_10 <= 1
 0 <= x_8_11 <= 1
 0 <= x_8_12 <= 1
 0 <= x_8_13 <= 1
 0 <= x_9_10 <= 1
 0 <= x_9_11 <= 1
 0 <= x_9_12 <= 1
 0 <= x_9_13 <= 1
 0 <= x_10_12 <= 1
 0 <= x_10_13 <= 1
 0 <= x_11_12 <= 1
 0 <= x_11_13 <= 1

Binaries
 x_0_2 x_0_3 x_0_4 x_0_5 x_0_6 x_0_7 x_1_2 x_1_3 x_1_4 x_1_5 x_1_6 x_1_7 x_2_4
 x_2_5 x_2_6 x_2_7 x_2_8 x_2_9 x_3_4 x_3_5 x_3_6 x_3_7 x_3_8 x_3_9 x_4_6 x_4_7
 x_4_8 x_4_9 x_4_10 x_4_11 x_5_6 x_5_7 x_5_8 x_5_9 x_5_10 x_5_11 x_6_8 x_6_9
 x_6_10 x_6_11 x_6_12 x_6_13 x_7_8 x_7_9 x_7_10 x_7_11 x_7_12 x_7_13 x_8_10
 x_8_11 x_8_12 x_8_13 x_9_10 x_9_11 x_9_12 x_9_13 x_10_12 x_10_13 x_11_12
 x_11_13
End
